 vasp.5.3.5 31Mar14 (build May 09 2014 20:02:08) complex

 executed on             LinuxIFC date 2016.06.15  19:37:12

 INCAR:
 POTCAR:   PAW_PBE V_pv 07Sep2000
 POTCAR:   PAW_PBE N 08Apr2002

 POTCAR:   PAW_PBE V_pv 07Sep2000
   VRHFIN =V: p6 d4 s1

   TITEL  = PAW_PBE V_pv 07Sep2000
   POMASS =   50.941; ZVAL   =   11.000    mass and valenz
   ENMAX  =  263.675; ENMIN  =  197.756 eV
   QCUT   =   -4.402; QGAM   =    8.804    optimization parameters

   Description
     l     E      TYP  RCUT    TYP  RCUT
     1   .000     23  2.000
     1   .400     23  2.000
     2   .000     23  2.300
     2   .000     23  2.300
     0   .000     23  2.300
     0  2.000     23  2.300
     3   .000      7   .000

 POTCAR:   PAW_PBE N 08Apr2002
   VRHFIN =N: s2p3

   TITEL  = PAW_PBE N 08Apr2002
   POMASS =   14.001; ZVAL   =    5.000    mass and valenz
   ENMAX  =  400.000; ENMIN  =  300.000 eV
   QCUT   =   -5.562; QGAM   =   11.124    optimization parameters

   Description
     l     E      TYP  RCUT    TYP  RCUT
     0   .000     23  1.200
     0   .000     23  1.200
     1   .000     23  1.500
     1   .700     23  1.500
     2   .000      7  1.500

 PAW_PBE V_pv 07Sep2000                 :
 PAW_PBE N 08Apr2002                    :

 POSCAR: super cell
  positions in direct lattice
 exchange correlation table for  LEXCH =        8
   RHO(1)=    0.500       N(1)  =     2000
   RHO(2)=  100.500       N(2)  =     4000

 ion  position               nearest neighbor table
   1  0.003  0.000  0.000-  77 2.03 113 2.03  68 2.06 125 2.06 116 2.09  80 2.09   2 2.88  17 2.90
                            50 2.90   5 2.90  14 2.90  29 2.92  53 2.92
   2  0.250  0.000  0.000-  65 2.06  77 2.06  78 2.06 113 2.06 114 2.06 126 2.06   1 2.88  18 2.92
                            30 2.92  50 2.92  51 2.92  54 2.92   3 2.92   5 2.92   6 2.92  14 2.92
   3  0.500  0.000  0.000-  66 2.06  78 2.06  79 2.06 114 2.06 115 2.06 127 2.06  18 2.92  19 2.92
                            31 2.92  51 2.92  52 2.92  55 2.92   2 2.92   4 2.92   6 2.92   7 2.92
   4  0.750  0.000  0.000-  67 2.06  79 2.06  80 2.06 115 2.06 116 2.06 128 2.06  20 2.92  32 2.92
                            49 2.92  52 2.92  56 2.92   3 2.92   7 2.92   8 2.92  13 2.92  16 2.92
   5  0.000  0.250  0.000-  65 2.06  68 2.06  72 2.06 113 2.06 117 2.06 120 2.06   1 2.90  21 2.92
                            24 2.92  53 2.92  54 2.92  57 2.92   2 2.92   6 2.92   8 2.92   9 2.92
   6  0.250  0.250  0.000-  65 2.06  66 2.06  69 2.06 114 2.06 117 2.06 118 2.06  18 2.92  21 2.92
                            22 2.92  54 2.92  55 2.92  58 2.92   2 2.92   3 2.92   5 2.92   7 2.92
   7  0.500  0.250  0.000-  66 2.06  67 2.06  70 2.06 115 2.06 118 2.06 119 2.06  19 2.92  22 2.92
                            23 2.92  55 2.92  56 2.92  59 2.92   3 2.92   4 2.92   6 2.92   8 2.92
   8  0.750  0.250  0.000-  67 2.06  68 2.06  71 2.06 116 2.06 119 2.06 120 2.06  23 2.92  24 2.92
                            53 2.92  56 2.92  60 2.92   4 2.92   5 2.92   7 2.92  11 2.92  12 2.92
   9  0.000  0.500  0.000-  69 2.06  72 2.06  76 2.06 117 2.06 121 2.06 124 2.06  21 2.92  25 2.92
                            28 2.92  57 2.92  58 2.92  61 2.92   5 2.92   6 2.92  10 2.92  12 2.92
  10  0.250  0.500  0.000-  69 2.06  70 2.06  73 2.06 118 2.06 121 2.06 122 2.06  22 2.92  25 2.92
                            26 2.92  58 2.92  59 2.92  62 2.92   6 2.92   7 2.92   9 2.92  11 2.92
  11  0.500  0.500  0.000-  70 2.06  71 2.06  74 2.06 119 2.06 122 2.06 123 2.06  23 2.92  26 2.92
                            27 2.92  59 2.92  60 2.92  63 2.92   7 2.92   8 2.92  10 2.92  12 2.92
  12  0.750  0.500  0.000-  71 2.06  72 2.06  75 2.06 120 2.06 123 2.06 124 2.06  24 2.92  27 2.92
                            28 2.92  57 2.92  60 2.92  64 2.92   5 2.92   8 2.92   9 2.92  11 2.92
  13  0.000  0.750  0.000-  73 2.06  76 2.06  80 2.06 121 2.06 125 2.06 128 2.06  29 2.92  32 2.92
                            49 2.92  61 2.92  62 2.92   4 2.92   9 2.92  10 2.92  14 2.92  16 2.92
  14  0.250  0.750  0.000-  73 2.06  74 2.06  77 2.06 122 2.06 125 2.06 126 2.06   1 2.90  29 2.92
                            30 2.92  50 2.92  62 2.92  63 2.92   2 2.92  10 2.92  11 2.92  13 2.92
  15  0.500  0.750  0.000-  74 2.06  75 2.06  78 2.06 123 2.06 126 2.06 127 2.06  27 2.92  30 2.92
                            31 2.92  51 2.92  63 2.92  64 2.92   2 2.92   3 2.92  11 2.92  12 2.92
  16  0.750  0.750  0.000-  75 2.06  76 2.06  79 2.06 124 2.06 127 2.06 128 2.06  28 2.92  31 2.92
                            32 2.92  52 2.92  61 2.92  64 2.92   3 2.92   4 2.92   9 2.92  12 2.92
  17  0.000  0.000  0.250-  65 2.06  68 2.06  77 2.06  84 2.06  93 2.06  96 2.06   1 2.90  29 2.92
                            30 2.92  33 2.92  36 2.92  45 2.92   2 2.92   5 2.92  18 2.92  20 2.92
  18  0.250  0.000  0.250-  65 2.06  66 2.06  78 2.06  81 2.06  93 2.06  94 2.06  22 2.92  30 2.92
                            31 2.92  33 2.92  34 2.92  46 2.92   2 2.92   3 2.92   6 2.92  17 2.92
  19  0.500  0.000  0.250-  66 2.06  67 2.06  79 2.06  82 2.06  94 2.06  95 2.06  23 2.92  31 2.92
                            32 2.92  34 2.92  35 2.92  47 2.92   3 2.92   4 2.92   7 2.92  18 2.92
  20  0.750  0.000  0.250-  67 2.06  68 2.06  80 2.06  83 2.06  95 2.06  96 2.06  29 2.92  32 2.92
                            35 2.92  36 2.92  48 2.92   4 2.92   8 2.92  17 2.92  19 2.92  23 2.92
  21  0.000  0.250  0.250-  65 2.06  69 2.06  72 2.06  81 2.06  84 2.06  88 2.06  24 2.92  25 2.92
                            28 2.92  33 2.92  37 2.92  40 2.92   5 2.92   6 2.92   9 2.92  17 2.92
  22  0.250  0.250  0.250-  66 2.06  69 2.06  70 2.06  81 2.06  82 2.06  85 2.06  23 2.92  25 2.92
                            26 2.92  34 2.92  37 2.92  38 2.92   6 2.92   7 2.92  10 2.92  18 2.92
  23  0.500  0.250  0.250-  67 2.06  70 2.06  71 2.06  82 2.06  83 2.06  86 2.06  24 2.92  26 2.92
                            27 2.92  35 2.92  38 2.92  39 2.92   7 2.92   8 2.92  11 2.92  19 2.92
  24  0.750  0.250  0.250-  68 2.06  71 2.06  72 2.06  83 2.06  84 2.06  87 2.06  23 2.92  27 2.92
                            28 2.92  36 2.92  39 2.92  40 2.92   5 2.92   8 2.92  12 2.92  17 2.92
  25  0.000  0.500  0.250-  69 2.06  73 2.06  76 2.06  85 2.06  88 2.06  92 2.06  28 2.92  29 2.92
                            32 2.92  37 2.92  41 2.92  44 2.92   9 2.92  10 2.92  13 2.92  21 2.92
  26  0.250  0.500  0.250-  70 2.06  73 2.06  74 2.06  85 2.06  86 2.06  89 2.06  27 2.92  29 2.92
                            30 2.92  38 2.92  41 2.92  42 2.92  10 2.92  11 2.92  14 2.92  22 2.92
  27  0.500  0.500  0.250-  71 2.06  74 2.06  75 2.06  86 2.06  87 2.06  90 2.06  28 2.92  30 2.92
                            31 2.92  39 2.92  42 2.92  43 2.92  11 2.92  12 2.92  15 2.92  23 2.92
  28  0.750  0.500  0.250-  72 2.06  75 2.06  76 2.06  87 2.06  88 2.06  91 2.06  27 2.92  31 2.92
                            32 2.92  40 2.92  43 2.92  44 2.92   9 2.92  12 2.92  16 2.92  21 2.92
  29  0.000  0.750  0.250-  73 2.06  77 2.06  80 2.06  89 2.06  92 2.06  96 2.06  30 2.92  32 2.92
                            41 2.92  45 2.92  48 2.92  13 2.92  14 2.92  17 2.92  20 2.92  25 2.92
  30  0.250  0.750  0.250-  74 2.06  77 2.06  78 2.06  89 2.06  90 2.06  93 2.06  27 2.92  29 2.92
                            31 2.92  42 2.92  45 2.92  46 2.92   2 2.92  14 2.92  15 2.92  17 2.92
  31  0.500  0.750  0.250-  75 2.06  78 2.06  79 2.06  90 2.06  91 2.06  94 2.06  28 2.92  30 2.92
                            32 2.92  43 2.92  46 2.92  47 2.92   3 2.92  15 2.92  16 2.92  18 2.92
  32  0.750  0.750  0.250-  76 2.06  79 2.06  80 2.06  91 2.06  92 2.06  95 2.06  28 2.92  29 2.92
                            31 2.92  44 2.92  47 2.92  48 2.92   4 2.92  13 2.92  16 2.92  19 2.92
  33  0.000  0.000  0.500-  81 2.06  84 2.06  93 2.06 100 2.06 109 2.06 112 2.06  40 2.92  45 2.92
                            46 2.92  49 2.92  52 2.92  61 2.92  17 2.92  18 2.92  21 2.92  34 2.92
  34  0.250  0.000  0.500-  81 2.06  82 2.06  94 2.06  97 2.06 109 2.06 110 2.06  38 2.92  46 2.92
                            47 2.92  49 2.92  50 2.92  62 2.92  18 2.92  19 2.92  22 2.92  33 2.92
  35  0.500  0.000  0.500-  82 2.06  83 2.06  95 2.06  98 2.06 110 2.06 111 2.06  39 2.92  47 2.92
                            48 2.92  50 2.92  51 2.92  63 2.92  19 2.92  20 2.92  23 2.92  34 2.92
  36  0.750  0.000  0.500-  83 2.06  84 2.06  96 2.06  99 2.06 111 2.06 112 2.06  40 2.92  45 2.92
                            48 2.92  51 2.92  52 2.92  64 2.92  17 2.92  20 2.92  24 2.92  33 2.92
  37  0.000  0.250  0.500-  81 2.06  85 2.06  88 2.06  97 2.06 100 2.06 104 2.06  40 2.92  41 2.92
                            44 2.92  49 2.92  53 2.92  56 2.92  21 2.92  22 2.92  25 2.92  33 2.92
  38  0.250  0.250  0.500-  82 2.06  85 2.06  86 2.06  97 2.06  98 2.06 101 2.06  39 2.92  41 2.92
                            42 2.92  50 2.92  53 2.92  54 2.92  22 2.92  23 2.92  26 2.92  34 2.92
  39  0.500  0.250  0.500-  83 2.06  86 2.06  87 2.06  98 2.06  99 2.06 102 2.06  40 2.92  42 2.92
                            43 2.92  51 2.92  54 2.92  55 2.92  23 2.92  24 2.92  27 2.92  35 2.92
  40  0.750  0.250  0.500-  84 2.06  87 2.06  88 2.06  99 2.06 100 2.06 103 2.06  39 2.92  43 2.92
                            44 2.92  52 2.92  55 2.92  56 2.92  21 2.92  24 2.92  28 2.92  33 2.92
  41  0.000  0.500  0.500-  85 2.06  89 2.06  92 2.06 101 2.06 104 2.06 108 2.06  44 2.92  45 2.92
                            48 2.92  53 2.92  57 2.92  60 2.92  25 2.92  26 2.92  29 2.92  37 2.92
  42  0.250  0.500  0.500-  86 2.06  89 2.06  90 2.06 101 2.06 102 2.06 105 2.06  43 2.92  45 2.92
                            46 2.92  54 2.92  57 2.92  58 2.92  26 2.92  27 2.92  30 2.92  38 2.92
  43  0.500  0.500  0.500-  87 2.06  90 2.06  91 2.06 102 2.06 103 2.06 106 2.06  44 2.92  46 2.92
                            47 2.92  55 2.92  58 2.92  59 2.92  27 2.92  28 2.92  31 2.92  39 2.92
  44  0.750  0.500  0.500-  88 2.06  91 2.06  92 2.06 103 2.06 104 2.06 107 2.06  43 2.92  47 2.92
                            48 2.92  56 2.92  59 2.92  60 2.92  25 2.92  28 2.92  32 2.92  37 2.92
  45  0.000  0.750  0.500-  89 2.06  93 2.06  96 2.06 105 2.06 108 2.06 112 2.06  42 2.92  46 2.92
                            48 2.92  57 2.92  61 2.92  64 2.92  17 2.92  29 2.92  30 2.92  33 2.92
  46  0.250  0.750  0.500-  90 2.06  93 2.06  94 2.06 105 2.06 106 2.06 109 2.06  43 2.92  45 2.92
                            47 2.92  58 2.92  61 2.92  62 2.92  18 2.92  30 2.92  31 2.92  33 2.92
  47  0.500  0.750  0.500-  91 2.06  94 2.06  95 2.06 106 2.06 107 2.06 110 2.06  44 2.92  46 2.92
                            48 2.92  59 2.92  62 2.92  63 2.92  19 2.92  31 2.92  32 2.92  34 2.92
  48  0.750  0.750  0.500-  92 2.06  95 2.06  96 2.06 107 2.06 108 2.06 111 2.06  44 2.92  45 2.92
                            47 2.92  60 2.92  63 2.92  64 2.92  20 2.92  29 2.92  32 2.92  35 2.92
  49  0.000  0.000  0.750-  97 2.06 100 2.06 109 2.06 116 2.06 125 2.06 128 2.06  52 2.92  53 2.92
                            56 2.92  61 2.92  62 2.92   4 2.92  13 2.92  33 2.92  34 2.92  37 2.92
[...]
     8.249100000  8.249100000  0.000000000     0.060612673  0.060612673 -0.060612673

  length of vectors
    11.665989097 11.665989097 11.665989097     0.104984229  0.104984229  0.104984229

 FORCES acting on ions
    electron-ion (+dipol)            ewald-force                    non-local-force                 convergence-correction
   0.127E-06 0.168E+02 0.168E+02   0.135E-12 -.169E+02 -.169E+02   0.000E+00 0.132E+00 0.132E+00   0.155E-08 -.227E-04 -.227E-04
   -.277E-05 -.420E+01 -.420E+01   -.100E-12 0.426E+01 0.426E+01   -.108E-18 -.118E+00 -.118E+00   0.143E-08 0.355E-04 0.355E-04
   -.244E-05 -.103E+01 -.103E+01   -.210E-12 0.101E+01 0.101E+01   -.217E-18 0.248E-02 0.248E-02   -.179E-08 0.174E-04 0.174E-04
   -.213E-05 -.403E+01 -.403E+01   -.284E-13 0.410E+01 0.410E+01   0.000E+00 -.119E+00 -.119E+00   -.125E-08 -.314E-04 -.314E-04
   -.296E+01 0.181E+01 -.113E+01   0.301E+01 -.184E+01 0.114E+01   -.731E-01 -.880E-02 -.391E-01   0.450E-04 -.141E-04 -.196E-04
   -.531E+00 -.410E+00 -.896E+00   0.524E+00 0.422E+00 0.913E+00   0.163E-02 0.574E-02 0.158E-01   0.159E-04 0.221E-04 0.208E-04
   0.510E+00 -.880E+00 -.414E+00   -.506E+00 0.899E+00 0.426E+00   0.215E-02 0.152E-01 0.358E-02   -.403E-04 0.312E-05 0.579E-05
   0.293E+01 -.119E+01 0.172E+01   -.299E+01 0.120E+01 -.176E+01   0.775E-01 -.453E-01 -.113E-01   0.305E-04 0.602E-05 -.241E-04
   -.646E+00 0.173E+00 -.383E+00   0.635E+00 -.197E+00 0.374E+00   -.162E-02 -.580E-02 0.229E-02   0.308E-04 0.421E-04 -.109E-04
   -.716E-02 0.113E+00 0.106E+00   0.742E-02 -.943E-01 -.876E-01   -.827E-03 0.624E-02 0.469E-02   -.288E-04 -.475E-04 0.160E-04
   0.646E+00 -.383E+00 0.173E+00   -.635E+00 0.374E+00 -.197E+00   0.162E-02 0.229E-02 -.580E-02   -.308E-04 -.109E-04 0.421E-04
   0.716E-02 0.106E+00 0.113E+00   -.742E-02 -.876E-01 -.943E-01   0.827E-03 0.469E-02 0.624E-02   0.288E-04 0.160E-04 -.475E-04
   -.293E+01 0.172E+01 -.119E+01   0.299E+01 -.176E+01 0.120E+01   -.775E-01 -.113E-01 -.453E-01   -.305E-04 -.241E-04 0.602E-05
   0.296E+01 -.113E+01 0.181E+01   -.301E+01 0.114E+01 -.184E+01   0.731E-01 -.391E-01 -.880E-02   -.450E-04 -.196E-04 -.141E-04
   0.531E+00 -.896E+00 -.410E+00   -.524E+00 0.913E+00 0.422E+00   -.163E-02 0.158E-01 0.574E-02   -.159E-04 0.208E-04 0.221E-04
   -.510E+00 -.414E+00 -.880E+00   0.506E+00 0.426E+00 0.899E+00   -.215E-02 0.358E-02 0.152E-01   0.403E-04 0.579E-05 0.312E-05
   -.296E+01 -.113E+01 0.181E+01   0.301E+01 0.114E+01 -.184E+01   -.731E-01 -.391E-01 -.880E-02   0.450E-04 -.196E-04 -.141E-04
   -.531E+00 -.896E+00 -.410E+00   0.524E+00 0.913E+00 0.422E+00   0.163E-02 0.158E-01 0.574E-02   0.159E-04 0.208E-04 0.221E-04
   0.510E+00 -.414E+00 -.880E+00   -.506E+00 0.426E+00 0.899E+00   0.215E-02 0.358E-02 0.152E-01   -.403E-04 0.579E-05 0.312E-05
   0.293E+01 0.172E+01 -.119E+01   -.299E+01 -.176E+01 0.120E+01   0.775E-01 -.113E-01 -.453E-01   0.305E-04 -.241E-04 0.602E-05
   -.795E+00 -.149E+00 -.149E+00   0.805E+00 0.135E+00 0.135E+00   0.151E-01 -.176E-02 -.176E-02   0.561E-04 -.158E-04 -.158E-04
   -.553E-02 -.155E+00 -.155E+00   0.578E-02 0.184E+00 0.184E+00   0.879E-03 0.441E-02 0.441E-02   -.916E-05 -.422E-04 -.422E-04
   0.786E+00 -.149E+00 -.149E+00   -.797E+00 0.140E+00 0.140E+00   -.101E-01 -.224E-02 -.224E-02   0.883E-05 0.472E-04 0.472E-04
   0.153E-01 0.476E+00 0.476E+00   -.151E-01 -.476E+00 -.476E+00   0.240E-03 -.155E-02 -.155E-02   0.525E-04 0.112E-04 0.112E-04
   -.264E+00 0.369E+00 -.103E+00   0.289E+00 -.376E+00 0.110E+00   0.614E-02 -.119E-02 -.463E-03   -.229E-04 -.286E-04 -.524E-04
   0.261E+00 -.915E-01 0.374E+00   -.284E+00 0.998E-01 -.379E+00   -.819E-02 0.564E-02 -.350E-02   0.341E-04 0.373E-04 0.103E-05
   0.232E+00 -.278E+00 0.436E-02   -.240E+00 0.277E+00 -.113E-02   0.590E-02 -.271E-02 0.523E-02   0.193E-04 0.714E-04 -.164E-04
   -.223E+00 0.508E-02 -.273E+00   0.235E+00 0.294E-02 0.274E+00   -.549E-02 0.990E-02 -.188E-02   -.502E-05 0.449E-04 -.574E-04
   0.477E-08 0.183E+01 0.174E+01   -.302E-13 -.187E+01 -.179E+01   0.000E+00 0.383E-01 0.284E-01   0.440E-09 0.129E-04 0.434E-05
   -.623E-08 -.152E+01 0.489E+00   0.560E-13 0.151E+01 -.492E+00   -.434E-18 -.295E-01 -.365E-02   -.276E-09 0.534E-04 -.212E-04
   -.149E-08 -.506E+00 -.498E+00   0.551E-13 0.517E+00 0.508E+00   0.000E+00 -.652E-02 -.942E-02   -.142E-08 0.165E-04 -.215E-04
   -.633E-08 0.462E+00 -.151E+01   -.320E-13 -.461E+00 0.150E+01   0.000E+00 0.803E-03 -.314E-01   0.103E-08 -.746E-05 -.374E-04
   -.646E+00 -.383E+00 0.173E+00   0.635E+00 0.374E+00 -.197E+00   -.162E-02 0.229E-02 -.580E-02   0.308E-04 -.109E-04 0.421E-04
   -.716E-02 0.106E+00 0.113E+00   0.742E-02 -.876E-01 -.943E-01   -.827E-03 0.469E-02 0.624E-02   -.288E-04 0.160E-04 -.475E-04
   0.646E+00 0.173E+00 -.383E+00   -.635E+00 -.197E+00 0.374E+00   0.162E-02 -.580E-02 0.229E-02   -.308E-04 0.421E-04 -.109E-04
   0.716E-02 0.113E+00 0.106E+00   -.742E-02 -.943E-01 -.876E-01   0.827E-03 0.624E-02 0.469E-02   0.288E-04 -.475E-04 0.160E-04
   -.264E+00 -.103E+00 0.369E+00   0.289E+00 0.110E+00 -.376E+00   0.614E-02 -.463E-03 -.119E-02   -.229E-04 -.524E-04 -.286E-04
   0.261E+00 0.374E+00 -.915E-01   -.284E+00 -.379E+00 0.998E-01   -.819E-02 -.350E-02 0.564E-02   0.341E-04 0.103E-05 0.373E-04
   0.232E+00 0.436E-02 -.278E+00   -.240E+00 -.113E-02 0.277E+00   0.590E-02 0.523E-02 -.271E-02   0.193E-04 -.164E-04 0.714E-04
   -.223E+00 -.273E+00 0.508E-02   0.235E+00 0.274E+00 0.294E-02   -.549E-02 -.188E-02 0.990E-02   -.502E-05 -.574E-04 0.449E-04
   0.307E-08 0.265E+00 0.265E+00   0.103E-12 -.261E+00 -.261E+00   -.108E-18 0.599E-02 0.599E-02   -.643E-10 0.107E-04 0.107E-04
   -.429E-09 -.457E-01 -.457E-01   0.924E-13 0.357E-01 0.357E-01   0.217E-18 0.293E-02 0.293E-02   0.142E-08 0.406E-04 0.406E-04
   0.854E-08 -.145E+00 -.145E+00   0.245E-12 0.184E+00 0.184E+00   0.000E+00 -.290E-02 -.290E-02   -.145E-08 0.375E-05 0.375E-05
   0.794E-09 -.534E-01 -.534E-01   -.613E-13 0.403E-01 0.403E-01   0.000E+00 0.112E-02 0.112E-02   0.122E-08 -.551E-04 -.551E-04
   -.261E+00 -.915E-01 0.374E+00   0.284E+00 0.998E-01 -.379E+00   0.819E-02 0.564E-02 -.350E-02   -.341E-04 0.373E-04 0.103E-05
   -.232E+00 -.278E+00 0.436E-02   0.240E+00 0.277E+00 -.113E-02   -.590E-02 -.271E-02 0.523E-02   -.193E-04 0.714E-04 -.164E-04
   0.223E+00 0.508E-02 -.273E+00   -.235E+00 0.294E-02 0.274E+00   0.549E-02 0.990E-02 -.188E-02   0.502E-05 0.449E-04 -.574E-04
   0.264E+00 0.369E+00 -.103E+00   -.289E+00 -.376E+00 0.110E+00   -.614E-02 -.119E-02 -.463E-03   0.229E-04 -.286E-04 -.524E-04
   -.293E+01 -.119E+01 0.172E+01   0.299E+01 0.120E+01 -.176E+01   -.775E-01 -.453E-01 -.113E-01   -.305E-04 0.602E-05 -.241E-04
   0.296E+01 0.181E+01 -.113E+01   -.301E+01 -.184E+01 0.114E+01   0.731E-01 -.880E-02 -.391E-01   -.450E-04 -.141E-04 -.196E-04
   0.531E+00 -.410E+00 -.896E+00   -.524E+00 0.422E+00 0.913E+00   -.163E-02 0.574E-02 0.158E-01   -.159E-04 0.221E-04 0.208E-04
   -.510E+00 -.880E+00 -.414E+00   0.506E+00 0.899E+00 0.426E+00   -.215E-02 0.152E-01 0.358E-02   0.403E-04 0.312E-05 0.579E-05
   0.231E-08 0.174E+01 0.183E+01   0.995E-13 -.179E+01 -.187E+01   0.000E+00 0.284E-01 0.383E-01   0.441E-09 0.434E-05 0.129E-04
   -.628E-08 0.489E+00 -.152E+01   0.191E-12 -.492E+00 0.151E+01   0.434E-18 -.365E-02 -.295E-01   -.275E-09 -.212E-04 0.534E-04
   -.155E-08 -.498E+00 -.506E+00   0.190E-12 0.508E+00 0.517E+00   0.000E+00 -.942E-02 -.652E-02   -.142E-08 -.215E-04 0.165E-04
   -.638E-08 -.151E+01 0.462E+00   0.238E-12 0.150E+01 -.461E+00   0.000E+00 -.314E-01 0.803E-03   0.104E-08 -.374E-04 -.746E-05
   -.261E+00 0.374E+00 -.915E-01   0.284E+00 -.379E+00 0.998E-01   0.819E-02 -.350E-02 0.564E-02   -.341E-04 0.103E-05 0.373E-04
   -.232E+00 0.436E-02 -.278E+00   0.240E+00 -.113E-02 0.277E+00   -.590E-02 0.523E-02 -.271E-02   -.193E-04 -.164E-04 0.714E-04
   0.223E+00 -.273E+00 0.508E-02   -.235E+00 0.274E+00 0.294E-02   0.549E-02 -.188E-02 0.990E-02   0.502E-05 -.574E-04 0.449E-04
   0.264E+00 -.103E+00 0.369E+00   -.289E+00 0.110E+00 -.376E+00   -.614E-02 -.463E-03 -.119E-02   0.229E-04 -.524E-04 -.286E-04
[...]
   -.230E-08 -.655E+00 -.323E+00   -.924E-13 0.671E+00 0.329E+00   0.759E-18 -.139E-01 0.111E-01   0.327E-11 0.118E-04 -.322E-04
   -.343E-08 -.483E+01 0.227E+01   -.711E-13 0.513E+01 -.236E+01   0.000E+00 -.200E+00 0.814E-01   0.198E-10 0.103E-04 0.661E-06
   -.309E+00 0.145E+00 -.376E+00   0.308E+00 -.149E+00 0.373E+00   0.426E-02 0.137E-01 0.634E-02   -.437E-05 0.423E-05 0.145E-04
   -.397E-03 -.156E+00 -.164E+00   0.203E-02 0.149E+00 0.152E+00   -.393E-02 0.116E-02 0.103E-01   0.120E-04 -.111E-04 0.471E-05
   0.304E+00 -.373E+00 0.136E+00   -.304E+00 0.372E+00 -.141E+00   -.414E-02 0.874E-02 0.138E-01   0.203E-04 -.103E-04 -.256E-05
   0.815E-02 0.398E+00 0.412E+00   -.712E-02 -.401E+00 -.414E+00   -.275E-02 -.550E-02 -.786E-02   0.249E-06 0.442E-05 -.448E-05
   -.290E+00 0.142E+00 -.107E-01   0.308E+00 -.144E+00 0.257E-01   -.203E-01 0.117E-01 -.179E-02   -.377E-05 0.116E-04 0.129E-05
   0.291E+00 -.103E-01 0.142E+00   -.303E+00 0.203E-01 -.146E+00   0.202E-01 0.197E-02 0.144E-01   -.225E-04 -.119E-05 0.106E-04
   0.184E+00 -.119E+00 -.106E-01   -.190E+00 0.125E+00 0.243E-02   0.267E-02 -.143E-01 -.116E-02   0.102E-04 -.107E-04 -.833E-05
   -.178E+00 -.125E-01 -.123E+00   0.185E+00 0.336E-02 0.123E+00   -.675E-03 -.126E-02 -.875E-02   0.536E-06 0.802E-05 -.114E-04
   -.841E-01 0.237E+01 0.237E+01   0.105E+00 -.247E+01 -.247E+01   -.884E-02 0.794E-01 0.794E-01   -.832E-05 -.963E-05 -.963E-05
   0.999E+00 -.580E+00 -.580E+00   -.998E+00 0.577E+00 0.577E+00   -.140E-01 0.779E-02 0.779E-02   -.257E-04 0.141E-04 0.141E-04
   0.546E-02 -.302E+00 -.302E+00   -.329E-02 0.311E+00 0.311E+00   -.230E-02 -.135E-01 -.135E-01   0.215E-04 -.935E-05 -.935E-05
   -.966E+00 -.576E+00 -.576E+00   0.966E+00 0.572E+00 0.572E+00   0.150E-01 0.848E-02 0.848E-02   0.988E-05 0.507E-05 0.507E-05
   -.302E-07 0.287E+00 0.287E+00   0.136E-11 -.115E-11 0.238E-12   -.486E-16 -.287E+00 -.287E+00   0.204E-09 -.176E-05 -.176E-05

 POSITION                                       TOTAL-FORCE (eV/Angst)
      0.00000      0.02828      0.02828         0.000000      0.021760      0.021760
      0.00000      2.06228      2.06228         0.000000     -0.051418     -0.051418
      0.00000      4.12455      4.12455         0.000000     -0.015120     -0.015120
      0.00000      6.18683      6.18683         0.000000     -0.044383     -0.044383
      2.06228      0.00000      2.06228        -0.015856     -0.040855     -0.028876
      2.06228      2.06228      4.12455        -0.006107      0.017574      0.031983
      2.06228      4.12455      6.18683         0.006811      0.034748      0.014997
      2.06228      6.18683      8.24910         0.015978     -0.030480     -0.049672
      4.12455      0.00000      4.12455        -0.012641     -0.029790     -0.006605
      4.12455      2.06228      6.18683        -0.000603      0.024414      0.023555
      4.12455      4.12455      8.24910         0.012641     -0.006605     -0.029790
      4.12455      6.18683     10.31138         0.000603      0.023555      0.024414
      6.18683      0.00000      6.18683        -0.015978     -0.049672     -0.030480
      6.18683      2.06228      8.24910         0.015856     -0.028876     -0.040855
      6.18683      4.12455     10.31138         0.006107      0.031983      0.017574
      6.18683      6.18683     12.37365        -0.006811      0.014997      0.034748
      2.06228      2.06228      0.00000        -0.015856     -0.028876     -0.040855
      2.06228      4.12455      2.06228        -0.006107      0.031983      0.017574
      2.06228      6.18683      4.12455         0.006811      0.014997      0.034748
      2.06228      8.24910      6.18683         0.015978     -0.049672     -0.030480
      4.12455      2.06228      2.06228         0.025070     -0.015630     -0.015630
      4.12455      4.12455      4.12455         0.001122      0.033629      0.033629
      4.12455      6.18683      6.18683        -0.020645     -0.011884     -0.011884
      4.12455      8.24910      8.24910         0.000460     -0.001336     -0.001336
      6.18683      2.06228      4.12455         0.030817     -0.007702      0.006118
      6.18683      4.12455      6.18683        -0.030439      0.014013     -0.008214
      6.18683      6.18683      8.24910        -0.002452     -0.003232      0.008444
      6.18683      8.24910     10.31138         0.006311      0.017960     -0.001449
      8.24910      2.06228      6.18683         0.000000     -0.005174     -0.020451
      8.24910      4.12455      8.24910         0.000000     -0.040669     -0.005994
      8.24910      6.18683     10.31138         0.000000      0.004636      0.000537
      8.24910      8.24910     12.37365         0.000000      0.001674     -0.040340
      4.12455      4.12455      0.00000        -0.012641     -0.006605     -0.029790
      4.12455      6.18683      2.06228        -0.000603      0.023555      0.024414
      4.12455      8.24910      4.12455         0.012641     -0.029790     -0.006605
      4.12455     10.31138      6.18683         0.000603      0.024414      0.023555
      6.18683      4.12455      2.06228         0.030817      0.006118     -0.007702
      6.18683      6.18683      4.12455        -0.030439     -0.008214      0.014013
      6.18683      8.24910      6.18683        -0.002452      0.008444     -0.003232
      6.18683     10.31138      8.24910         0.006311     -0.001449      0.017960
      8.24910      4.12455      4.12455         0.000000      0.010273      0.010273
      8.24910      6.18683      6.18683         0.000000     -0.007005     -0.007005
      8.24910      8.24910      8.24910         0.000000      0.036423      0.036423
      8.24910     10.31138     10.31138         0.000000     -0.012103     -0.012103
     10.31138      4.12455      6.18683         0.030439      0.014013     -0.008214
     10.31138      6.18683      8.24910         0.002452     -0.003232      0.008444
     10.31138      8.24910     10.31138        -0.006311      0.017960     -0.001449
     10.31138     10.31138     12.37365        -0.030817     -0.007702      0.006118
      6.18683      6.18683      0.00000        -0.015978     -0.030480     -0.049672
      6.18683      8.24910      2.06228         0.015856     -0.040855     -0.028876
      6.18683     10.31138      4.12455         0.006107      0.017574      0.031983
      6.18683     12.37365      6.18683        -0.006811      0.034748      0.014997
      8.24910      6.18683      2.06228         0.000000     -0.020451     -0.005174
      8.24910      8.24910      4.12455         0.000000     -0.005994     -0.040669
      8.24910     10.31138      6.18683         0.000000      0.000537      0.004636
      8.24910     12.37365      8.24910         0.000000     -0.040340      0.001674
     10.31138      6.18683      4.12455         0.030439     -0.008214      0.014013
     10.31138      8.24910      6.18683         0.002452      0.008444     -0.003232
     10.31138     10.31138      8.24910        -0.006311     -0.001449      0.017960
     10.31138     12.37365     10.31138        -0.030817      0.006118     -0.007702
[...]
      8.24910     10.31138      4.12455         0.000000      0.015534     -0.001399
      8.24910     12.37365      6.18682         0.000000      0.001967      0.017097
      8.24910     14.43593      8.24910         0.000000      0.101895     -0.009886
     10.31138      8.24910      4.12455         0.002751      0.010039      0.003704
     10.31138     10.31138      6.18683        -0.002286     -0.005684     -0.001599
     10.31138     12.37365      8.24910        -0.003404      0.008488      0.008959
     10.31138     14.43593     10.31138        -0.001717     -0.008429     -0.009822
     12.37365      8.24910      6.18682        -0.002813      0.009506      0.013188
     12.37365     10.31138      8.24910         0.007715      0.011951      0.009791
     12.37365     12.37365     10.31137        -0.003298     -0.008802     -0.009317
     12.37365     14.43593     12.37365         0.006039     -0.010398     -0.008861
     14.43593      8.24910      8.24910         0.012212     -0.011210     -0.011210
     14.43593     10.31138     10.31138        -0.013194      0.005167      0.005167
     14.43593     12.37365     12.37365        -0.000099     -0.004292     -0.004292
     14.43593     14.43593     14.43593         0.015034      0.004478      0.004478
    total drift:                               -0.000000      0.000019      0.000019

  FREE ENERGIE OF THE ION-ELECTRON SYSTEM (eV)
  free  energy   TOTEN  =     -1238.46781400 eV

  energy  without entropy=    -1238.44883520  energy(sigma->0) =    -1238.45832460